2.0 
1.0 
1.0 
3.0 
4.0 
1.0 
3.0 
0.0 
0.0 
2.0 
-------------------------------------------------------------------------------------------------------------
0.0 
0.0 
1.0 
0.0 
0.0 
0.0 
1.0 
2.0 
1.0 
1.0 
-------------------------------------------------------------------------------------------------------------
5.0 
3.0 
7.0 
5.0 
4.0 
8.0 
10.0 
4.6 
14.4 
10.0 
-------------------------------------------------------------------------------------------------------------
0.0 
2.0 
3.0 
3.0 
1.0 
2.0 
1.0 
2.0 
2.0 
0.0 
